networks/zoo_71_477/zoo_71_477-lower.txt
Number of groups: 36
Flow 3: {1 15 0} {15 51 0} 
Flow 25: {2 31 0} {31 34 0} {34 70 0} 
Flow 26: {3 13 0} {13 49 0} 
Flow 32: {4 15 0} {15 1 0} {1 37 0} 
Flow 54: {5 28 0} {28 19 0} {19 55 0} 
Flow 67: {6 31 0} {31 67 0} 
Flow 68: {7 14 0} {14 33 0} {33 35 0} {35 28 0} {28 64 0} 
Flow 74: {9 28 0} {28 35 0} {35 33 0} {33 69 0} 
Flow 82: {10 30 0} {30 16 0} {16 52 0} 
Flow 97: {11 30 0} {30 34 0} {34 31 0} {31 15 0} {15 32 0} {32 13 0} {13 33 0} {33 14 0} {14 50 0} 
Flow 108: {12 30 0} {30 17 0} {17 53 0} 
Flow 118: {13 3 0} {3 39 0} 
Flow 119: {32 15 0} {15 4 0} {4 40 0} 
Flow 133: {26 29 0} {29 24 0} {24 60 0} 
Flow 147: {14 7 0} {7 43 0} 
Flow 151: {34 30 0} {30 12 0} {12 48 0} 
Flow 163: {14 27 0} {27 63 0} 
Flow 194: {16 30 0} 
Flow 201: {17 30 0} {30 23 0} {23 59 0} 
Flow 213: {18 28 0} 
Flow 222: {19 28 0} {28 8 0} {8 44 0} 
Flow 236: {21 28 0} 
Flow 239: {22 30 0} 
Flow 253: {23 30 0} {30 66 0} 
Flow 272: {25 29 0} {29 26 0} {26 32 0} {32 68 0} 
Flow 286: {28 5 0} {5 41 0} 
Flow 287: {15 31 0} {31 6 0} {6 42 0} 
Flow 290: {28 9 0} {9 45 0} 
Flow 300: {28 20 0} {20 56 0} 
Flow 301: {28 21 0} {21 57 0} 
Flow 306: {33 13 0} {13 32 0} {32 26 0} {26 62 0} 
Flow 327: {29 25 0} {25 61 0} 
Flow 344: {30 10 0} {10 46 0} 
Flow 345: {30 11 0} {11 47 0} 
Flow 355: {30 22 0} {22 58 0} 
Flow 366: {35 71 0} 
Time taken running everything: 2 seconds
