networks/zoo_71_477/zoo_71_477-lower.sol
<?xml version = "1.0" encoding="UTF-8" standalone="yes"?>
<CPLEXSolution version="1.2">
 <header
   problemName="networks/zoo_71_477/zoo_71_477-lower.lp"
   solutionName="incumbent"
   solutionIndex="-1"
   objectiveValue="32"
   solutionTypeValue="3"
   solutionTypeString="primal"
   solutionStatusValue="101"
   solutionStatusString="integer optimal solution"
   solutionMethodString="mip"
   primalFeasible="1"
   dualFeasible="1"
   MIPNodes="0"
   MIPIterations="0"
   writeLevel="3"/>
 <quality
   epInt="1.0000000000000001e-05"
   epRHS="9.9999999999999995e-07"
   maxIntInfeas="0"
   maxPrimalInfeas="0"
   maxX="1"
   maxSlack="1"/>
 <variables>
  <variable name="Y(1,13)" index="12" value="1"/>
  <variable name="Y(2,14)" index="80" value="1"/>
  <variable name="Y(3,15)" index="148" value="1"/>
  <variable name="Y(4,17)" index="217" value="1"/>
  <variable name="Y(5,23)" index="290" value="1"/>
  <variable name="Y(6,25)" index="359" value="1"/>
  <variable name="Y(7,26)" index="427" value="1"/>
  <variable name="Y(8,28)" index="496" value="1"/>
  <variable name="Y(9,30)" index="565" value="1"/>
  <variable name="Y(10,31)" index="633" value="1"/>
  <variable name="Y(11,32)" index="701" value="1"/>
  <variable name="Y(12,33)" index="769" value="1"/>
  <variable name="Y(13,34)" index="837" value="1"/>
  <variable name="Y(32,1)" index="2077" value="1"/>
  <variable name="Y(33,8)" index="2151" value="1"/>
  <variable name="Y(38,19)" index="2497" value="1"/>
  <variable name="Y(76,7)" index="5031" value="1"/>
  <variable name="Y(78,12)" index="5170" value="1"/>
  <variable name="Y(82,16)" index="5442" value="1"/>
  <variable name="Y(85,21)" index="5648" value="1"/>
  <variable name="Y(89,27)" index="5922" value="1"/>
  <variable name="Y(118,3)" index="7841" value="1"/>
  <variable name="Y(119,4)" index="7909" value="1"/>
  <variable name="Y(122,10)" index="8116" value="1"/>
  <variable name="Y(123,11)" index="8184" value="1"/>
  <variable name="Y(131,22)" index="8731" value="1"/>
  <variable name="Y(133,24)" index="8867" value="1"/>
  <variable name="Y(143,35)" index="9548" value="1"/>
  <variable name="Y(286,5)" index="19099" value="1"/>
  <variable name="Y(287,6)" index="19167" value="1"/>
  <variable name="Y(290,9)" index="19371" value="1"/>
  <variable name="Y(300,20)" index="20052" value="1"/>
  <variable name="X(1,15,1)" index="31959" value="1"/>
  <variable name="X(1,37,32)" index="32467" value="1"/>
  <variable name="X(2,31,14)" index="32926" value="1"/>
  <variable name="X(3,13,26)" index="33415" value="1"/>
  <variable name="X(3,39,118)" index="33984" value="1"/>
  <variable name="X(4,15,32)" index="34375" value="1"/>
  <variable name="X(4,40,119)" index="34939" value="1"/>
  <variable name="X(5,28,48)" index="35345" value="1"/>
  <variable name="X(5,41,286)" index="36060" value="1"/>
  <variable name="X(6,31,64)" index="36315" value="1"/>
  <variable name="X(6,42,287)" index="37015" value="1"/>
  <variable name="X(7,14,68)" index="37273" value="1"/>
  <variable name="X(7,43,76)" index="37758" value="1"/>
  <variable name="X(8,44,33)" index="38192" value="1"/>
  <variable name="X(9,28,69)" index="38705" value="1"/>
  <variable name="X(9,45,290)" index="39403" value="1"/>
  <variable name="X(10,30,75)" index="39665" value="1"/>
  <variable name="X(10,46,122)" index="40189" value="1"/>
  <variable name="X(11,30,96)" index="40640" value="1"/>
  <variable name="X(11,47,123)" index="41144" value="1"/>
  <variable name="X(12,30,105)" index="41603" value="1"/>
  <variable name="X(12,48,78)" index="42053" value="1"/>
  <variable name="X(13,3,118)" index="42570" value="1"/>
  <variable name="X(13,32,27)" index="42956" value="1"/>
  <variable name="X(13,33,2)" index="43408" value="1"/>
  <variable name="X(13,49,1)" index="43884" value="1"/>
  <variable name="X(14,7,76)" index="44436" value="1"/>
  <variable name="X(14,27,89)" index="44926" value="1"/>
  <variable name="X(14,33,68)" index="45382" value="1"/>
  <variable name="X(14,50,2)" index="45793" value="1"/>
  <variable name="X(15,1,32)" index="46300" value="1"/>
  <variable name="X(15,4,119)" index="46864" value="1"/>
  <variable name="X(15,31,4)" index="47226" value="1"/>
  <variable name="X(15,32,1)" index="47700" value="1"/>
  <variable name="X(15,51,3)" index="48179" value="1"/>
  <variable name="X(16,30,194)" index="48847" value="1"/>
  <variable name="X(16,52,82)" index="49212" value="1"/>
  <variable name="X(17,30,195)" index="49802" value="1"/>
  <variable name="X(17,53,4)" index="50088" value="1"/>
  <variable name="X(18,28,210)" index="50771" value="1"/>
  <variable name="X(19,28,221)" index="51259" value="1"/>
  <variable name="X(19,55,38)" index="51553" value="1"/>
  <variable name="X(20,56,300)" index="52292" value="1"/>
  <variable name="X(21,28,236)" index="52705" value="1"/>
  <variable name="X(21,57,85)" index="53031" value="1"/>
  <variable name="X(22,30,239)" index="53662" value="1"/>
  <variable name="X(22,58,131)" index="54031" value="1"/>
  <variable name="X(23,30,240)" index="54617" value="1"/>
  <variable name="X(23,59,5)" index="54859" value="1"/>
  <variable name="X(24,60,133)" index="55464" value="1"/>
  <variable name="X(25,29,258)" index="56066" value="1"/>
  <variable name="X(25,61,6)" index="56291" value="1"/>
  <variable name="X(26,29,6)" index="56768" value="1"/>
  <variable name="X(26,32,258)" index="57497" value="1"/>
  <variable name="X(26,62,7)" index="57723" value="1"/>
  <variable name="X(27,63,89)" index="58282" value="1"/>
  <variable name="X(28,5,286)" index="58956" value="1"/>
  <variable name="X(28,8,33)" index="59180" value="1"/>
  <variable name="X(28,9,290)" index="59914" value="1"/>
  <variable name="X(28,19,38)" index="60139" value="1"/>
  <variable name="X(28,20,300)" index="60878" value="1"/>
  <variable name="X(28,21,85)" index="61140" value="1"/>
  <variable name="X(28,35,48)" index="61580" value="1"/>
  <variable name="X(28,64,8)" index="62017" value="1"/>
  <variable name="X(29,24,133)" index="62619" value="1"/>
  <variable name="X(29,25,6)" index="62969" value="1"/>
  <variable name="X(29,26,258)" index="63698" value="1"/>
  <variable name="X(30,10,122)" index="64039" value="1"/>
  <variable name="X(30,11,123)" index="64517" value="1"/>
  <variable name="X(30,12,78)" index="64949" value="1"/>
  <variable name="X(30,16,82)" index="65430" value="1"/>
  <variable name="X(30,17,4)" index="65829" value="1"/>
  <variable name="X(30,22,131)" index="66433" value="1"/>
  <variable name="X(30,23,5)" index="66784" value="1"/>
  <variable name="X(30,34,75)" index="67331" value="1"/>
  <variable name="X(30,66,9)" index="67742" value="1"/>
  <variable name="X(31,6,287)" index="68497" value="1"/>
  <variable name="X(31,15,14)" index="68701" value="1"/>
  <variable name="X(31,34,4)" index="69168" value="1"/>
  <variable name="X(31,67,10)" index="69651" value="1"/>
  <variable name="X(32,13,1)" index="70119" value="1"/>
  <variable name="X(32,15,27)" index="70622" value="1"/>
  <variable name="X(32,26,6)" index="71078" value="1"/>
  <variable name="X(32,68,11)" index="71560" value="1"/>
  <variable name="X(33,13,48)" index="72074" value="1"/>
  <variable name="X(33,14,2)" index="72505" value="1"/>
  <variable name="X(33,35,8)" index="72988" value="1"/>
  <variable name="X(33,69,12)" index="73469" value="1"/>
  <variable name="X(34,30,4)" index="73938" value="1"/>
  <variable name="X(34,31,75)" index="74486" value="1"/>
  <variable name="X(34,70,13)" index="74901" value="1"/>
  <variable name="X(35,28,8)" index="75373" value="1"/>
  <variable name="X(35,33,48)" index="75890" value="1"/>
  <variable name="X(35,71,143)" index="76462" value="1"/>
 </variables>
</CPLEXSolution>
